proyfinal/src/viki/013/experimentInOfficeAgust.take6.output/77c868b7-f141-4ad5-a86a-a91885319089.als.dat
{'cnf.clauses': '118081',
 'cnf.totvars': '69608',
 'conflict literals': '2',
 'conflicts': '3',
 'decisions': '3400',
 'memused.mb': '14.73',
 'outcome': 'UNSAT',
 'propagations': '24555',
 'restarts': '1',
 'solver.msecs': 34,
 'task.msecs': 80}
