proyfinal/src/viki/013/experimentInOfficeAgust.take6.output/77c868b7-f141-4ad5-a86a-a91885319089.als.out
Reading from standard input... Use '--help' for help.
============================[ Problem Statistics ]=============================
|                                                                             |
|  Number of variables:         69608                                         |
|  Number of clauses:          118081                                         |
|  Parse time:                   0.03 s                                       |
|                                                                             |
============================[ Search Statistics ]==============================
| Conflicts |          ORIGINAL         |          LEARNT          | Progress |
|           |    Vars  Clauses Literals |    Limit  Clauses Lit/Cl |          |
===============================================================================
===============================================================================
restarts              : 1
conflicts             : 3              (86 /sec)
decisions             : 3400           (0.00 % random) (97525 /sec)
propagations          : 24555          (704328 /sec)
conflict literals     : 2              (0.00 % deleted)
Memory used           : 14.73 MB
CPU time              : 0.034863 s

UNSATISFIABLE
